p cnf 629 1457
1 0
2 0
3 0
4 0
5 0
6 0
7 0
-8 0
-9 0
-10 0
-11 0
-12 0
-13 0
-14 0
-15 0
-16 0
-17 0
-18 19 0
20 19 0
18 -20 -19 0
1 -19 0
-1 19 0
-21 22 0
23 22 0
21 -23 -22 0
24 -22 0
-24 22 0
-25 26 0
27 26 0
25 -27 -26 0
28 -26 0
-28 26 0
-29 30 0
31 30 0
29 -31 -30 0
32 -30 0
-32 30 0
-33 34 0
35 34 0
33 -35 -34 0
36 -34 0
-36 34 0
-37 38 0
39 38 0
37 -39 -38 0
2 -38 0
-2 38 0
-40 41 0
42 41 0
40 -42 -41 0
43 -41 0
-43 41 0
-44 45 0
46 45 0
44 -46 -45 0
47 -45 0
-47 45 0
-48 49 0
50 49 0
48 -50 -49 0
51 -49 0
-51 49 0
-52 53 0
54 53 0
52 -54 -53 0
3 -53 0
-3 53 0
-55 56 0
57 56 0
55 -57 -56 0
58 -56 0
-58 56 0
-59 60 0
61 60 0
59 -61 -60 0
4 -60 0
-4 60 0
-62 63 0
64 63 0
62 -64 -63 0
65 -63 0
-65 63 0
-66 67 0
68 67 0
66 -68 -67 0
69 -67 0
-69 67 0
-70 71 0
72 71 0
70 -72 -71 0
73 -71 0
-73 71 0
-74 75 0
76 75 0
74 -76 -75 0
5 -75 0
-5 75 0
-77 78 0
79 78 0
77 -79 -78 0
80 -78 0
-80 78 0
-81 82 0
83 82 0
81 -83 -82 0
84 -82 0
-84 82 0
-85 86 0
87 86 0
85 -87 -86 0
6 -86 0
-6 86 0
-88 89 0
90 89 0
88 -90 -89 0
91 -89 0
-91 89 0
-92 93 0
94 93 0
92 -94 -93 0
7 -93 0
-7 93 0
-95 96 0
97 96 0
95 -97 -96 0
8 -96 0
-8 96 0
-98 99 0
100 99 0
98 -100 -99 0
101 -99 0
-101 99 0
-102 103 0
104 103 0
102 -104 -103 0
105 -103 0
-105 103 0
-106 107 0
108 107 0
106 -108 -107 0
109 -107 0
-109 107 0
-110 111 0
112 111 0
110 -112 -111 0
113 -111 0
-113 111 0
-114 115 0
116 115 0
114 -116 -115 0
117 -115 0
-117 115 0
-118 119 0
120 119 0
118 -120 -119 0
9 -119 0
-9 119 0
-121 122 0
123 122 0
121 -123 -122 0
124 -122 0
-124 122 0
-125 126 0
127 126 0
125 -127 -126 0
10 -126 0
-10 126 0
-128 129 0
130 129 0
128 -130 -129 0
131 -129 0
-131 129 0
-132 133 0
134 133 0
132 -134 -133 0
135 -133 0
-135 133 0
-136 137 0
138 137 0
136 -138 -137 0
139 -137 0
-139 137 0
-140 141 0
142 141 0
140 -142 -141 0
143 -141 0
-143 141 0
-144 145 0
146 145 0
144 -146 -145 0
147 -145 0
-147 145 0
-148 149 0
150 149 0
148 -150 -149 0
11 -149 0
-11 149 0
-151 152 0
153 152 0
151 -153 -152 0
154 -152 0
-154 152 0
-155 156 0
157 156 0
155 -157 -156 0
158 -156 0
-158 156 0
-159 160 0
161 160 0
159 -161 -160 0
162 -160 0
-162 160 0
-163 164 0
165 164 0
163 -165 -164 0
166 -164 0
-166 164 0
-167 168 0
169 168 0
167 -169 -168 0
12 -168 0
-12 168 0
-170 171 0
172 171 0
170 -172 -171 0
173 -171 0
-173 171 0
-174 175 0
176 175 0
174 -176 -175 0
177 -175 0
-177 175 0
-178 179 0
180 179 0
178 -180 -179 0
181 -179 0
-181 179 0
-182 183 0
184 183 0
182 -184 -183 0
185 -183 0
-185 183 0
-186 187 0
188 187 0
186 -188 -187 0
189 -187 0
-189 187 0
-190 191 0
192 191 0
190 -192 -191 0
193 -191 0
-193 191 0
-194 195 0
196 195 0
194 -196 -195 0
13 -195 0
-13 195 0
-197 198 0
199 198 0
197 -199 -198 0
200 -198 0
-200 198 0
-201 202 0
203 202 0
201 -203 -202 0
204 -202 0
-204 202 0
-205 206 0
207 206 0
205 -207 -206 0
208 -206 0
-208 206 0
-209 210 0
211 210 0
209 -211 -210 0
212 -210 0
-212 210 0
-213 214 0
215 214 0
213 -215 -214 0
216 -214 0
-216 214 0
-217 218 0
219 218 0
217 -219 -218 0
220 -218 0
-220 218 0
-221 222 0
223 222 0
221 -223 -222 0
14 -222 0
-14 222 0
-224 225 0
226 225 0
224 -226 -225 0
227 -225 0
-227 225 0
-228 229 0
230 229 0
228 -230 -229 0
231 -229 0
-231 229 0
-232 233 0
234 233 0
232 -234 -233 0
235 -233 0
-235 233 0
-236 237 0
238 237 0
236 -238 -237 0
239 -237 0
-239 237 0
-240 241 0
242 241 0
240 -242 -241 0
15 -241 0
-15 241 0
-243 244 0
245 244 0
243 -245 -244 0
246 -244 0
-246 244 0
-247 248 0
249 248 0
247 -249 -248 0
16 -248 0
-16 248 0
-250 251 0
252 251 0
250 -252 -251 0
253 -251 0
-253 251 0
-254 255 0
256 255 0
254 -256 -255 0
257 -255 0
-257 255 0
-258 259 0
260 259 0
258 -260 -259 0
17 -259 0
-17 259 0
-261 262 0
263 262 0
261 -263 -262 0
264 -262 0
-264 262 0
-265 266 0
267 266 0
265 -267 -266 0
268 -266 0
-268 266 0
-269 270 0
271 270 0
269 -271 -270 0
272 -270 0
-272 270 0
-273 274 0
275 274 0
273 -275 -274 0
276 -274 0
-276 274 0
-277 278 0
-21 -279 278 0
21 277 -278 0
277 279 -278 0
18 -278 0
-18 278 0
-280 281 0
-25 -282 281 0
25 280 -281 0
280 282 -281 0
21 -281 0
-21 281 0
-283 284 0
-29 -285 284 0
29 283 -284 0
283 285 -284 0
25 -284 0
-25 284 0
-286 287 0
-33 -288 287 0
33 286 -287 0
286 288 -287 0
29 -287 0
-29 287 0
-289 290 0
-280 -291 290 0
-283 -282 -291 290 0
-286 -282 -285 -291 290 0
280 283 286 289 -290 0
283 286 289 291 -290 0
280 282 286 289 -290 0
282 286 289 291 -290 0
280 286 289 291 -290 0
286 289 291 -290 0
280 282 283 289 -290 0
282 283 289 291 -290 0
280 282 289 -290 0
282 289 291 -290 0
280 282 289 291 -290 0
280 283 285 289 -290 0
283 285 289 291 -290 0
280 282 285 289 -290 0
282 285 289 291 -290 0
280 285 289 291 -290 0
285 289 291 -290 0
280 283 289 291 -290 0
283 289 291 -290 0
280 289 291 -290 0
289 291 -290 0
33 -290 0
-33 290 0
-292 293 0
-40 -294 293 0
40 292 -293 0
292 294 -293 0
37 -293 0
-37 293 0
-295 296 0
-44 -297 296 0
44 295 -296 0
295 297 -296 0
40 -296 0
-40 296 0
-298 299 0
-48 -300 299 0
48 298 -299 0
298 300 -299 0
44 -299 0
-44 299 0
48 -301 0
301 -48 0
-302 303 0
-55 -304 303 0
55 302 -303 0
302 304 -303 0
52 -303 0
-52 303 0
55 -305 0
305 -55 0
-306 307 0
-62 -308 307 0
62 306 -307 0
306 308 -307 0
59 -307 0
-59 307 0
-309 310 0
-66 -311 310 0
66 309 -310 0
309 311 -310 0
62 -310 0
-62 310 0
-312 313 0
-70 -314 313 0
70 312 -313 0
312 314 -313 0
66 -313 0
-66 313 0
-315 316 0
-74 -317 316 0
74 315 -316 0
315 317 -316 0
70 -316 0
-70 316 0
-318 319 0
-77 -320 319 0
77 318 -319 0
318 320 -319 0
74 -319 0
-74 319 0
-321 322 0
-81 -323 322 0
81 321 -322 0
321 323 -322 0
77 -322 0
-77 322 0
-324 325 0
-37 -326 325 0
37 324 -325 0
324 326 -325 0
81 -325 0
-81 325 0
-327 328 0
-88 -329 328 0
88 327 -328 0
327 329 -328 0
85 -328 0
-85 328 0
-330 331 0
-77 -332 331 0
77 330 -331 0
330 332 -331 0
88 -331 0
-88 331 0
-333 334 0
-40 -335 334 0
40 333 -334 0
333 335 -334 0
92 -334 0
-92 334 0
-336 337 0
-98 -338 337 0
98 336 -337 0
336 338 -337 0
95 -337 0
-95 337 0
-339 340 0
-102 -341 340 0
102 339 -340 0
339 341 -340 0
98 -340 0
-98 340 0
-342 343 0
-106 -344 343 0
106 342 -343 0
342 344 -343 0
102 -343 0
-102 343 0
-345 346 0
-110 -347 346 0
110 345 -346 0
345 347 -346 0
106 -346 0
-106 346 0
-348 349 0
-114 -350 349 0
114 348 -349 0
348 350 -349 0
110 -349 0
-110 349 0
-351 352 0
-345 -353 352 0
-348 -347 -353 352 0
345 348 351 -352 0
348 351 353 -352 0
345 347 351 -352 0
347 351 353 -352 0
345 351 353 -352 0
351 353 -352 0
114 -352 0
-114 352 0
-354 355 0
-121 -356 355 0
121 354 -355 0
354 356 -355 0
118 -355 0
-118 355 0
-357 358 0
-55 -359 358 0
55 357 -358 0
357 359 -358 0
121 -358 0
-121 358 0
-360 361 0
-128 -362 361 0
128 360 -361 0
360 362 -361 0
125 -361 0
-125 361 0
-363 364 0
-132 -365 364 0
132 363 -364 0
363 365 -364 0
128 -364 0
-128 364 0
-366 367 0
-136 -368 367 0
136 366 -367 0
366 368 -367 0
132 -367 0
-132 367 0
-369 370 0
-140 -371 370 0
140 369 -370 0
369 371 -370 0
136 -370 0
-136 370 0
-372 373 0
-144 -374 373 0
144 372 -373 0
372 374 -373 0
140 -373 0
-140 373 0
-375 376 0
-372 -377 376 0
372 375 -376 0
375 377 -376 0
144 -376 0
-144 376 0
-378 379 0
-151 -380 379 0
151 378 -379 0
378 380 -379 0
148 -379 0
-148 379 0
-381 382 0
-155 -383 382 0
155 381 -382 0
381 383 -382 0
151 -382 0
-151 382 0
-384 385 0
-159 -386 385 0
159 384 -385 0
384 386 -385 0
155 -385 0
-155 385 0
-387 388 0
-163 -389 388 0
163 387 -388 0
387 389 -388 0
159 -388 0
-159 388 0
-390 391 0
-387 -392 391 0
387 390 -391 0
390 392 -391 0
163 -391 0
-163 391 0
-393 394 0
-170 -395 394 0
170 393 -394 0
393 395 -394 0
167 -394 0
-167 394 0
-396 397 0
-174 -398 397 0
174 396 -397 0
396 398 -397 0
170 -397 0
-170 397 0
-399 400 0
-178 -401 400 0
178 399 -400 0
399 401 -400 0
174 -400 0
-174 400 0
-402 403 0
-182 -404 403 0
182 402 -403 0
402 404 -403 0
178 -403 0
-178 403 0
-405 406 0
-186 -407 406 0
186 405 -406 0
405 407 -406 0
182 -406 0
-182 406 0
-408 409 0
-190 -410 409 0
190 408 -409 0
408 410 -409 0
186 -409 0
-186 409 0
-411 412 0
-405 -413 412 0
-407 -413 -408 412 0
405 407 411 -412 0
407 411 413 -412 0
405 411 413 -412 0
411 413 -412 0
405 408 411 -412 0
408 411 413 -412 0
190 -412 0
-190 412 0
-414 415 0
-197 -416 415 0
197 414 -415 0
414 416 -415 0
194 -415 0
-194 415 0
-417 418 0
-201 -419 418 0
201 417 -418 0
417 419 -418 0
197 -418 0
-197 418 0
-420 421 0
-205 -422 421 0
205 420 -421 0
420 422 -421 0
201 -421 0
-201 421 0
-423 424 0
-209 -425 424 0
209 423 -424 0
423 425 -424 0
205 -424 0
-205 424 0
-426 427 0
-213 -428 427 0
213 426 -427 0
426 428 -427 0
209 -427 0
-209 427 0
-429 430 0
-217 -431 430 0
217 429 -430 0
429 431 -430 0
213 -430 0
-213 430 0
-432 433 0
-423 -434 433 0
-426 -425 -434 433 0
-435 0
423 425 426 432 -433 0
425 426 432 434 -433 0
423 425 432 -433 0
425 432 434 -433 0
423 425 432 434 -433 0
423 426 428 432 -433 0
426 428 432 434 -433 0
423 425 428 432 -433 0
425 428 432 434 -433 0
423 428 432 434 -433 0
428 432 434 -433 0
423 426 432 434 -433 0
426 432 434 -433 0
423 432 434 -433 0
432 434 -433 0
423 426 429 432 -433 0
426 429 432 434 -433 0
423 425 429 432 -433 0
425 429 432 434 -433 0
423 429 432 434 -433 0
429 432 434 -433 0
217 -433 0
-217 433 0
-436 437 0
-224 -438 437 0
224 436 -437 0
436 438 -437 0
221 -437 0
-221 437 0
-439 440 0
-228 -441 440 0
228 439 -440 0
439 441 -440 0
224 -440 0
-224 440 0
-442 443 0
-232 -444 443 0
232 442 -443 0
442 444 -443 0
228 -443 0
-228 443 0
-445 446 0
-236 -447 446 0
236 445 -446 0
445 447 -446 0
232 -446 0
-232 446 0
-448 449 0
-442 -450 449 0
-445 -444 -450 449 0
442 445 448 -449 0
445 448 450 -449 0
442 444 448 -449 0
444 448 450 -449 0
442 448 450 -449 0
448 450 -449 0
236 -449 0
-236 449 0
-451 452 0
-243 -453 452 0
243 451 -452 0
451 453 -452 0
240 -452 0
-240 452 0
-454 455 0
-182 -456 455 0
182 454 -455 0
454 456 -455 0
243 -455 0
-243 455 0
-457 458 0
-250 -459 458 0
250 457 -458 0
457 459 -458 0
247 -458 0
-247 458 0
-460 461 0
-254 -462 461 0
254 460 -461 0
460 462 -461 0
250 -461 0
-250 461 0
254 -463 0
463 -254 0
-464 465 0
-261 -466 465 0
261 464 -465 0
464 466 -465 0
258 -465 0
-258 465 0
-467 468 0
-265 -469 468 0
265 467 -468 0
467 469 -468 0
261 -468 0
-261 468 0
-470 471 0
-269 -472 471 0
269 470 -471 0
470 472 -471 0
265 -471 0
-265 471 0
-473 474 0
-273 -475 474 0
273 473 -474 0
473 475 -474 0
269 -474 0
-269 474 0
-476 477 0
-470 -478 477 0
-472 -478 -473 477 0
470 472 476 -477 0
472 476 478 -477 0
470 476 478 -477 0
476 478 -477 0
470 473 476 -477 0
473 476 478 -477 0
273 -477 0
-273 477 0
479 -279 -480 0
279 -479 -480 0
-479 -279 480 0
279 479 480 0
-480 0
481 -282 -482 0
282 -481 -482 0
-481 -282 482 0
282 481 482 0
-482 0
483 -285 -484 0
285 -483 -484 0
-483 -285 484 0
285 483 484 0
-484 0
485 -288 -486 0
288 -485 -486 0
-485 -288 486 0
288 485 486 0
-486 0
487 -291 -488 0
291 -487 -488 0
-487 -291 488 0
291 487 488 0
-488 0
489 -294 -490 0
294 -489 -490 0
-489 -294 490 0
294 489 490 0
-490 0
491 -297 -492 0
297 -491 -492 0
-491 -297 492 0
297 491 492 0
-492 0
493 -300 -494 0
300 -493 -494 0
-493 -300 494 0
300 493 494 0
-494 0
495 -496 -497 0
496 -495 -497 0
-495 -496 497 0
496 495 497 0
-497 0
498 -304 -499 0
304 -498 -499 0
-498 -304 499 0
304 498 499 0
-499 0
500 -501 -502 0
501 -500 -502 0
-500 -501 502 0
501 500 502 0
-502 0
503 -308 -504 0
308 -503 -504 0
-503 -308 504 0
308 503 504 0
-504 0
505 -311 -506 0
311 -505 -506 0
-505 -311 506 0
311 505 506 0
-506 0
507 -314 -508 0
314 -507 -508 0
-507 -314 508 0
314 507 508 0
-508 0
509 -317 -510 0
317 -509 -510 0
-509 -317 510 0
317 509 510 0
-510 0
511 -320 -512 0
320 -511 -512 0
-511 -320 512 0
320 511 512 0
-512 0
513 -323 -514 0
323 -513 -514 0
-513 -323 514 0
323 513 514 0
-514 0
515 -326 -516 0
326 -515 -516 0
-515 -326 516 0
326 515 516 0
-516 0
517 -329 -518 0
329 -517 -518 0
-517 -329 518 0
329 517 518 0
-518 0
519 -332 -520 0
332 -519 -520 0
-519 -332 520 0
332 519 520 0
-520 0
521 -335 -522 0
335 -521 -522 0
-521 -335 522 0
335 521 522 0
-522 0
523 -338 -524 0
338 -523 -524 0
-523 -338 524 0
338 523 524 0
-524 0
525 -341 -526 0
341 -525 -526 0
-525 -341 526 0
341 525 526 0
-526 0
527 -344 -528 0
344 -527 -528 0
-527 -344 528 0
344 527 528 0
-528 0
529 -347 -530 0
347 -529 -530 0
-529 -347 530 0
347 529 530 0
-530 0
531 -350 -532 0
350 -531 -532 0
-531 -350 532 0
350 531 532 0
-532 0
533 -353 -534 0
353 -533 -534 0
-533 -353 534 0
353 533 534 0
-534 0
535 -356 -536 0
356 -535 -536 0
-535 -356 536 0
356 535 536 0
-536 0
537 -359 -538 0
359 -537 -538 0
-537 -359 538 0
359 537 538 0
-538 0
539 -362 -540 0
362 -539 -540 0
-539 -362 540 0
362 539 540 0
-540 0
541 -365 -542 0
365 -541 -542 0
-541 -365 542 0
365 541 542 0
-542 0
543 -368 -544 0
368 -543 -544 0
-543 -368 544 0
368 543 544 0
-544 0
545 -371 -546 0
371 -545 -546 0
-545 -371 546 0
371 545 546 0
-546 0
547 -374 -548 0
374 -547 -548 0
-547 -374 548 0
374 547 548 0
-548 0
549 -377 -550 0
377 -549 -550 0
-549 -377 550 0
377 549 550 0
-550 0
551 -380 -552 0
380 -551 -552 0
-551 -380 552 0
380 551 552 0
-552 0
553 -383 -554 0
383 -553 -554 0
-553 -383 554 0
383 553 554 0
-554 0
555 -386 -556 0
386 -555 -556 0
-555 -386 556 0
386 555 556 0
-556 0
557 -389 -558 0
389 -557 -558 0
-557 -389 558 0
389 557 558 0
-558 0
559 -392 -560 0
392 -559 -560 0
-559 -392 560 0
392 559 560 0
-560 0
561 -395 -562 0
395 -561 -562 0
-561 -395 562 0
395 561 562 0
-562 0
563 -398 -564 0
398 -563 -564 0
-563 -398 564 0
398 563 564 0
-564 0
565 -401 -566 0
401 -565 -566 0
-565 -401 566 0
401 565 566 0
-566 0
567 -404 -568 0
404 -567 -568 0
-567 -404 568 0
404 567 568 0
-568 0
569 -407 -570 0
407 -569 -570 0
-569 -407 570 0
407 569 570 0
-570 0
571 -410 -572 0
410 -571 -572 0
-571 -410 572 0
410 571 572 0
-572 0
573 -413 -574 0
413 -573 -574 0
-573 -413 574 0
413 573 574 0
-574 0
575 -416 -576 0
416 -575 -576 0
-575 -416 576 0
416 575 576 0
-576 0
577 -419 -578 0
419 -577 -578 0
-577 -419 578 0
419 577 578 0
-578 0
579 -422 -580 0
422 -579 -580 0
-579 -422 580 0
422 579 580 0
-580 0
581 -425 -582 0
425 -581 -582 0
-581 -425 582 0
425 581 582 0
-582 0
583 -428 -584 0
428 -583 -584 0
-583 -428 584 0
428 583 584 0
-584 0
585 -431 -586 0
431 -585 -586 0
-585 -431 586 0
431 585 586 0
-586 0
587 -434 -588 0
434 -587 -588 0
-587 -434 588 0
434 587 588 0
-588 0
589 -438 -590 0
438 -589 -590 0
-589 -438 590 0
438 589 590 0
-590 0
591 -441 -592 0
441 -591 -592 0
-591 -441 592 0
441 591 592 0
-592 0
593 -444 -594 0
444 -593 -594 0
-593 -444 594 0
444 593 594 0
-594 0
595 -447 -596 0
447 -595 -596 0
-595 -447 596 0
447 595 596 0
-596 0
597 -450 -598 0
450 -597 -598 0
-597 -450 598 0
450 597 598 0
-598 0
599 -453 -600 0
453 -599 -600 0
-599 -453 600 0
453 599 600 0
-600 0
601 -456 -602 0
456 -601 -602 0
-601 -456 602 0
456 601 602 0
-602 0
603 -459 -604 0
459 -603 -604 0
-603 -459 604 0
459 603 604 0
-604 0
605 -462 -606 0
462 -605 -606 0
-605 -462 606 0
462 605 606 0
-606 0
607 -608 -609 0
608 -607 -609 0
-607 -608 609 0
608 607 609 0
-609 0
610 -466 -611 0
466 -610 -611 0
-610 -466 611 0
466 610 611 0
-611 0
612 -469 -613 0
469 -612 -613 0
-612 -469 613 0
469 612 613 0
-613 0
614 -472 -615 0
472 -614 -615 0
-614 -472 615 0
472 614 615 0
-615 0
616 -475 -617 0
475 -616 -617 0
-616 -475 617 0
475 616 617 0
-617 0
618 -478 -619 0
478 -618 -619 0
-618 -478 619 0
478 618 619 0
-619 0
479 0
-481 0
483 0
-485 0
-487 0
489 0
491 0
493 0
-495 0
-498 0
500 0
503 0
505 0
-507 0
-509 0
511 0
-513 0
515 0
517 0
-519 0
-521 0
523 0
-525 0
-527 0
-529 0
531 0
-533 0
535 0
537 0
-539 0
541 0
543 0
-545 0
547 0
-549 0
-551 0
553 0
555 0
-557 0
559 0
-561 0
563 0
565 0
-567 0
-569 0
-571 0
-573 0
-575 0
577 0
-579 0
-581 0
-583 0
-585 0
-587 0
589 0
591 0
593 0
595 0
-597 0
599 0
601 0
603 0
-605 0
607 0
610 0
-612 0
614 0
-616 0
-618 0
-277 0
-280 0
-283 0
-286 0
-289 0
-292 0
-295 0
-298 0
-301 0
-302 0
-305 0
-306 0
-309 0
-312 0
-315 0
-318 0
-321 0
-324 0
-327 0
-330 0
-333 0
-336 0
339 0
-342 0
-345 0
-348 0
351 0
-354 0
357 0
-360 0
-363 0
366 0
369 0
-372 0
-375 0
-378 0
-381 0
384 0
387 0
-390 0
-393 0
-396 0
-399 0
402 0
405 0
408 0
-411 0
-414 0
-417 0
420 0
-423 0
-426 0
429 0
-432 0
-436 0
439 0
442 0
-445 0
-448 0
-451 0
454 0
-457 0
460 0
463 0
-464 0
467 0
470 0
473 0
-476 0
-620 -621 0
-620 20 0
-620 -23 0
-620 27 0
-620 -31 0
-620 -35 0
-620 39 0
-620 42 0
-620 46 0
-620 -50 0
-620 -54 0
57 -620 0
61 -620 0
-620 64 0
-620 -68 0
-620 -72 0
-620 76 0
-620 -79 0
-620 83 0
-620 87 0
-620 -90 0
-620 -94 0
-620 97 0
-620 -100 0
-620 -104 0
-620 -108 0
-620 112 0
-620 -116 0
-620 120 0
-620 123 0
-620 -127 0
-620 130 0
-620 134 0
-620 -138 0
-620 142 0
-620 -146 0
-620 -150 0
-620 153 0
-620 157 0
-620 -161 0
-620 165 0
-620 -169 0
-620 172 0
-620 176 0
-620 -180 0
-620 -184 0
-620 -188 0
-620 -192 0
-620 -196 0
-620 199 0
-620 -203 0
-620 -207 0
-620 -211 0
-620 -215 0
-620 -219 0
-620 223 0
-620 226 0
-620 230 0
-620 234 0
-620 -238 0
-620 242 0
-620 245 0
-620 249 0
-620 -252 0
-620 256 0
-620 260 0
-620 -263 0
-620 267 0
-620 -271 0
-620 -275 0
-621 -20 0
-621 -23 0
-621 -27 0
-621 -31 0
-621 -35 0
-621 -39 0
-621 -42 0
-621 -46 0
-621 -50 0
-621 -54 0
-621 -57 0
-621 -61 0
-621 -64 0
-621 -68 0
-621 -72 0
-621 -76 0
-621 -79 0
-621 -83 0
-621 -87 0
-621 -90 0
-621 -94 0
-621 -97 0
-621 100 0
-621 -104 0
-621 -108 0
-621 -112 0
-621 116 0
-621 -120 0
-621 123 0
-621 -127 0
-621 -130 0
-621 134 0
-621 138 0
-621 -142 0
-621 -146 0
-621 -150 0
-621 -153 0
-621 157 0
-621 161 0
-621 -165 0
-621 -169 0
-621 -172 0
-621 -176 0
-621 180 0
-621 184 0
-621 188 0
-621 -192 0
-621 -196 0
-621 -199 0
-621 203 0
-621 -207 0
-621 -211 0
-621 215 0
-621 -219 0
-621 -223 0
-621 226 0
-621 230 0
-621 -234 0
-621 -238 0
-621 -242 0
-621 245 0
-621 -249 0
-621 252 0
-621 256 0
-621 -260 0
-621 263 0
-621 267 0
-621 271 0
-621 -275 0
620 621 0
-622 0
-623 0
-624 0
-625 0
-626 0
-627 0
-628 0
-629 0
